NAME: tsp30-22
TYPE: TSP
DIMENSION: 30
EDGE_WEIGHT_TYPE: EUC_2D
NODE_COORD_SECTION
0 48 85
1 57 27
2 63 11
3 71 71
4 13 17
5 16 77
6 0 89
7 33 51
8 50 41
9 89 44
10 39 80
11 100 11
12 32 73
13 77 96
14 58 36
15 93 65
16 33 80
17 82 55
18 91 60
19 16 3
20 34 65
21 44 30
22 37 3
23 93 27
24 83 43
25 74 9
26 74 84
27 83 22
28 47 23
29 87 56
EOF